(set-logic QF_UF)
(declare-fun car () Bool)
(declare-fun circuit () Bool)
(declare-fun clk () Bool)
(declare-fun prt () Bool)
(assert (not (= (or (or (not car) (not clk)) (not (not car))) (or (or (not car) (not clk)) car))))
(assert (= (or (not car) (not clk)) (or (not car) (not clk))))
(assert (= (not (not car)) car))
(check-sat)
(exit)
